\* Benchmark 01 *\
Maximize
OBJ: x1 + x2 + x3 + x4 + x5 + x6
Subject To
Arco5.1: x1 + x5 <= 1
Arco5.2: x2 + x5 <= 1
Arco5.3: x3 + x5 <= 1
Arco6.1: x1 + x6 <= 1
Arco6.2: x2 + x6 <= 1
Arco6.4: x4 + x6 <= 1
Binaries
x1
x2
x3
x4
x5
x6
End
